
  17    0


   0  10 2 3 4 5 6 12 13 14 15 16 
   8   5 11 10 9 8 7 
   4   2 10 7 
   3   1 9 
   5   1 8 
   3   1 7 
   8   1 17
   5   1 17
   3   1 17
   4   1 17
   4   1 17
   3   1 17
   9   1 17
   2   1 17
   4   1 17
   3   1 17
   0   0 
